NAME: tsp25_2
COMMENT: 25-tsp problem (Padberg/Rinaldi)
TYPE: TSP
DIMENSION: 25
EDGE_WEIGHT_TYPE : EUC_2D
NODE_COORD_SECTION
1 12 20
2 13 40
3 31 30
4 15 7
5 16 5
6 19 17
7 33 18
8 21 17
9 16 29
10 36 9
11 39 19
12 40 33
13 2 18
14 6 5
15 35 25
16 12 35
17 11 19
18 0 1
19 29 27
20 26 12
21 22 28
22 18 18
23 24 34
24 21 13
25 38 34
